\* Problem: Unknown *\

Maximize
 obj: + xp_0_0 + xp_0_1 + xp_0_2 + xp_0_3 + xp_0_4 + xp_0_5 + xp_0_6
 + xp_1_0 + xp_1_1 + xp_2_0 + xp_2_1 + xp_2_2 + xp_2_3 + xp_2_4 + xp_3_0
 + xp_3_1 + xp_3_2 + xp_3_3 + xp_4_0 + xp_5_0 + xp_5_1 + xp_6_0 + xp_6_1
 + xp_6_2 + xp_6_3 + xp_7_0 + xp_7_1 + xp_8_0 + xp_8_1 + xp_9_0
 + xp_10_0 + xp_10_1 + xp_11_0 + xp_11_1 + xp_11_2 + xp_11_3 + xp_12_0
 + xp_13_0 + xp_13_1 + xp_14_0 + xp_14_1 + xp_15_0 + xp_16_0 + xp_17_0
 + xp_17_1 + xp_17_2 + xp_17_3 + xp_17_4 + xp_18_0 + xp_18_1 + xp_18_2
 + xp_18_3 + xp_19_0 + xp_19_1 + xp_19_2 + xp_19_3 + xp_20_0 + xp_20_1
 + xp_20_2 + xp_20_3 + xp_21_0 + xp_21_1 + xp_21_2 + xp_21_3 + xp_22_0
 + xp_22_1 + xp_22_2 + xp_22_3 + xp_22_4 + xp_22_5 + xp_23_0 + xp_23_1
 + xp_23_2 + xp_23_3 + xp_23_4 + xp_23_5

Subject To
 r_1: 0 xp_0_0 <= 30
 r_2: + xp_23_5 + xp_22_2 + xp_18_3 + xp_2_3 <= 29.4574468085106
 r_3: + xp_21_3 + xp_18_2 + xp_6_3 <= 30
 r_4: + xp_17_1 + xp_15_0 + xp_3_3 <= 30
 r_5: + xp_18_0 <= 27.9004491017964
 r_6: + xp_18_1 <= 30
 r_7: + xp_20_3 <= 30
 r_8: + xp_22_3 + xp_11_2 + xp_6_2 + xp_5_1 + xp_3_2 + xp_2_2
 <= 29.4574468085106
 r_9: + xp_23_2 + xp_11_1 + xp_6_1 + xp_3_1 <= 30
 r_10: + xp_3_0 <= 30
 r_11: + xp_18_1 + xp_11_3 <= 27.9004491017964
 r_12: + xp_11_0 + xp_3_3 <= 30
 r_13: 0 xp_0_0 <= 30
 r_14: + xp_14_0 + xp_0_6 + xp_0_1 <= 29.4574468085106
 r_15: + xp_21_0 <= 30
 r_16: + xp_22_1 + xp_21_2 + xp_19_2 + xp_0_5 + xp_0_3 + xp_0_2 <= 30
 r_17: + xp_0_0 <= 27.9004491017964
 r_18: + xp_21_3 + xp_4_0 <= 30
 r_19: + xp_19_0 <= 30
 r_20: + xp_21_1 + xp_19_3 + xp_19_1 + xp_14_1 + xp_0_4 <= 30
 r_21: + xp_20_1 <= 29.4574468085106
 r_22: + xp_7_1 <= 29.4574468085106
 r_23: + xp_22_3 + xp_22_2 <= 29.4574468085106
 r_24: + xp_23_5 + xp_23_3 + xp_6_2 + xp_3_2 + xp_0_6 + xp_0_4
 <= 29.4574468085106
 r_25: 0 xp_0_0 <= 29.4574468085106
 r_26: + xp_18_3 + xp_0_1 <= 27.9004491017964
 r_27: + xp_11_2 <= 29.4574468085106
 r_28: + xp_20_3 + xp_10_1 <= 29.4574468085106
 r_29: + xp_20_2 <= 30
 r_30: + xp_2_0 <= 29.4574468085106
 r_31: + xp_23_2 + xp_18_2 + xp_6_3 + xp_6_1 + xp_3_1 + xp_2_4 <= 30
 r_32: + xp_2_1 <= 30
 r_33: + xp_11_1 + xp_2_3 <= 30
 r_34: + xp_19_3 + xp_2_2 <= 30
 r_35: 0 xp_0_0 <= 30
 r_36: + xp_9_0 <= 29.4574468085106
 r_37: + xp_21_2 + xp_13_1 + xp_8_1 + xp_0_5 <= 30
 r_38: + xp_23_4 + xp_1_1 <= 30
 r_39: + xp_19_2 + xp_17_3 + xp_0_3 <= 30
 r_40: + xp_0_2 <= 27.9004491017964
 r_41: + xp_12_0 + xp_2_4 <= 29.4574468085106
 r_42: + xp_21_2 <= 30
 r_43: + xp_16_0 <= 30
 r_44: + xp_23_5 + xp_23_3 + xp_23_2 + xp_23_1 + xp_22_4 <= 30
 r_45: + xp_17_4 + xp_3_2 + xp_3_1 <= 30
 r_46: + xp_18_2 + xp_0_6 + xp_0_5 + xp_0_4 <= 27.9004491017964
 r_47: + xp_22_5 + xp_22_4 + xp_13_1 <= 30
 r_48: + xp_13_0 <= 30
 r_49: + xp_17_2 <= 30
 r_50: 0 xp_0_0 <= 27.9004491017964
 r_51: + xp_8_1 + xp_1_1 <= 30
 r_52: + xp_8_0 <= 30
 r_53: + xp_1_0 <= 30
 r_54: + xp_0_3 <= 27.9004491017964
 r_55: 0 xp_0_0 <= 30
 r_56: + xp_19_2 <= 30
 r_57: + xp_22_1 <= 27.9004491017964
 r_58: + xp_23_3 + xp_5_0 <= 27.9004491017964
 r_59: + xp_23_4 + xp_22_0 + xp_17_3 <= 27.9004491017964
 r_60: + xp_23_1 + xp_22_4 + xp_17_4 + xp_6_0 <= 27.9004491017964
 r_61: + xp_23_0 + xp_22_5 + xp_17_2 <= 27.9004491017964
 r_62: + xp_17_0 <= 27.9004491017964
 r_63: + xp_23_5 + xp_22_2 + xp_17_1 + xp_11_3 + xp_6_3
 <= 27.9004491017964
 r_64: + xp_23_2 + xp_22_3 + xp_6_2 + xp_6_1 + xp_5_1
 <= 27.9004491017964
 r_65: + xp_20_3 + xp_20_1 + xp_14_1 + xp_10_1 + xp_7_1 + xp_2_1
 + xp_0_4 <= 29.4574468085106
 r_66: + xp_21_1 + xp_20_2 + xp_19_3 + xp_7_0 <= 30
 r_67: + xp_19_1 + xp_10_0 <= 30
 r_68: + xp_20_0 <= 30

Bounds
 0 <= xp_0_0 <= 27.7896866765608
 0 <= xp_0_1 <= 13.1111667226499
 0 <= xp_0_2 <= 14.4072308085546
 0 <= xp_0_3 <= 1.02477494054844
 0 <= xp_0_4 <= 1.02477494054844
 0 <= xp_0_5 <= 3.34561396700154
 0 <= xp_0_6 <= 1.02477494054844
 0 <= xp_1_0 <= 20.6262454047992
 0 <= xp_1_1 <= 13.9350174707961
 0 <= xp_2_0 <= 24.3335603890012
 0 <= xp_2_1 <= 0.914262619990445
 0 <= xp_2_2 <= 3.34561396700154
 0 <= xp_2_3 <= 3.65705047996178
 0 <= xp_2_4 <= 1.82852523998089
 0 <= xp_3_0 <= 25.2578665421206
 0 <= xp_3_1 <= 1.83856877310983
 0 <= xp_3_2 <= 3.95847022470482
 0 <= xp_3_3 <= 0.612856257703276
 0 <= xp_4_0 <= 25.7200095818384
 0 <= xp_5_0 <= 22.5050083841086
 0 <= xp_5_1 <= 3.2150011977298
 0 <= xp_6_0 <= 11.5740043118273
 0 <= xp_6_1 <= 2.89350107795682
 0 <= xp_6_2 <= 2.89350107795682
 0 <= xp_6_3 <= 5.78700215591364
 0 <= xp_7_0 <= 13.8646926652098
 0 <= xp_7_1 <= 8.31881559912586
 0 <= xp_8_0 <= 17.4413814976842
 0 <= xp_8_1 <= 2.4916259282406
 0 <= xp_9_0 <= 18.4862568869464
 0 <= xp_10_0 <= 16.1754747760781
 0 <= xp_10_1 <= 2.31078211086829
 0 <= xp_11_0 <= 23.4192977690108
 0 <= xp_11_1 <= 16.7280698350077
 0 <= xp_11_2 <= 10.0368419010046
 0 <= xp_11_3 <= 3.34561396700154
 0 <= xp_12_0 <= 17.3610064677409
 0 <= xp_13_0 <= 14.7689117520713
 0 <= xp_13_1 <= 2.10984453601018
 0 <= xp_14_0 <= 12.0562544914868
 0 <= xp_14_1 <= 4.01875149716225
 0 <= xp_15_0 <= 15.9142559287625
 0 <= xp_16_0 <= 15.2712556892166
 0 <= xp_17_0 <= 26.7950356441712
 0 <= xp_17_1 <= 2.24045061405399
 0 <= xp_17_2 <= 2.24045061405399
 0 <= xp_17_3 <= 7.82651519510952
 0 <= xp_17_4 <= 5.58606458105553
 0 <= xp_18_0 <= 22.0327950463501
 0 <= xp_18_1 <= 15.3817813922304
 0 <= xp_18_2 <= 3.34561396700154
 0 <= xp_18_3 <= 1.99932552422425
 0 <= xp_19_0 <= 28.7039559877791
 0 <= xp_19_1 <= 7.75617700706728
 0 <= xp_19_2 <= 1.93904425176682
 0 <= xp_19_3 <= 3.87808850353364
 0 <= xp_20_0 <= 27.0964486976863
 0 <= xp_20_1 <= 7.02276489567707
 0 <= xp_20_2 <= 5.51572639301329
 0 <= xp_20_3 <= 1.83857546433776
 0 <= xp_21_0 <= 30
 0 <= xp_21_1 <= 1.61754413199384
 0 <= xp_21_2 <= 4.85263239598152
 0 <= xp_21_3 <= 3.23508826398768
 0 <= xp_22_0 <= 18.1446763921434
 0 <= xp_22_1 <= 1.41660655713573
 0 <= xp_22_2 <= 10.9410476054103
 0 <= xp_22_3 <= 1.41660655713573
 0 <= xp_22_4 <= 1.41660655713573
 0 <= xp_22_5 <= 4.76222052413727
 0 <= xp_23_0 <= 22.9068969162807
 0 <= xp_23_1 <= 7.59543363840872
 0 <= xp_23_2 <= 1.41660655713573
 0 <= xp_23_3 <= 3.34561396700154
 0 <= xp_23_4 <= 1.41660655713573
 0 <= xp_23_5 <= 1.41660655713573

End
